% fzn-gecode wdp_bal.fzn

array [1..2] of float: X_INTRODUCED_102_ = [1.0,0.3713319999999998];
array [1..2] of int: X_INTRODUCED_232_ = [1,1];
array [1..8] of int: X_INTRODUCED_241_ = [1,1,1,1,1,1,1,1];
array [1..2] of float: X_INTRODUCED_243_ = [1.0,-1.0];
var bool: X_INTRODUCED_0_;
var bool: X_INTRODUCED_1_;
var bool: X_INTRODUCED_2_;
var bool: X_INTRODUCED_3_;
var bool: X_INTRODUCED_4_;
var bool: X_INTRODUCED_5_;
var bool: X_INTRODUCED_6_;
var bool: X_INTRODUCED_7_;
var bool: X_INTRODUCED_8_;
var bool: X_INTRODUCED_9_;
var bool: X_INTRODUCED_10_;
var bool: X_INTRODUCED_11_;
var bool: X_INTRODUCED_12_;
var bool: X_INTRODUCED_13_;
var bool: X_INTRODUCED_14_;
var bool: X_INTRODUCED_15_;
var 0..1: X_INTRODUCED_16_ ::var_is_introduced :: is_defined_var;
var 0.0..1.0: X_INTRODUCED_17_ ::var_is_introduced :: is_defined_var;
var 0..1: X_INTRODUCED_20_ ::var_is_introduced :: is_defined_var;
var 0.0..1.0: X_INTRODUCED_21_ ::var_is_introduced :: is_defined_var;
var 0..1: X_INTRODUCED_24_ ::var_is_introduced :: is_defined_var;
var 0.0..1.0: X_INTRODUCED_25_ ::var_is_introduced :: is_defined_var;
var 0..1: X_INTRODUCED_28_ ::var_is_introduced :: is_defined_var;
var 0.0..1.0: X_INTRODUCED_29_ ::var_is_introduced :: is_defined_var;
var 0..1: X_INTRODUCED_32_ ::var_is_introduced :: is_defined_var;
var 0.0..1.0: X_INTRODUCED_33_ ::var_is_introduced :: is_defined_var;
var 0..1: X_INTRODUCED_36_ ::var_is_introduced :: is_defined_var;
var 0.0..1.0: X_INTRODUCED_37_ ::var_is_introduced :: is_defined_var;
var 0..1: X_INTRODUCED_40_ ::var_is_introduced :: is_defined_var;
var 0.0..1.0: X_INTRODUCED_41_ ::var_is_introduced :: is_defined_var;
var 0..1: X_INTRODUCED_44_ ::var_is_introduced :: is_defined_var;
var 0.0..1.0: X_INTRODUCED_45_ ::var_is_introduced :: is_defined_var;
var 0..1: X_INTRODUCED_51_ ::var_is_introduced :: is_defined_var;
var 0.0..1.0: X_INTRODUCED_52_ ::var_is_introduced :: is_defined_var;
var 0..1: X_INTRODUCED_54_ ::var_is_introduced :: is_defined_var;
var 0.0..1.0: X_INTRODUCED_55_ ::var_is_introduced :: is_defined_var;
var 0..1: X_INTRODUCED_57_ ::var_is_introduced :: is_defined_var;
var 0.0..1.0: X_INTRODUCED_58_ ::var_is_introduced :: is_defined_var;
var 0..1: X_INTRODUCED_60_ ::var_is_introduced :: is_defined_var;
var 0.0..1.0: X_INTRODUCED_61_ ::var_is_introduced :: is_defined_var;
var 0..1: X_INTRODUCED_63_ ::var_is_introduced :: is_defined_var;
var 0.0..1.0: X_INTRODUCED_64_ ::var_is_introduced :: is_defined_var;
var 0..1: X_INTRODUCED_66_ ::var_is_introduced :: is_defined_var;
var 0.0..1.0: X_INTRODUCED_67_ ::var_is_introduced :: is_defined_var;
var 0..1: X_INTRODUCED_69_ ::var_is_introduced :: is_defined_var;
var 0.0..1.0: X_INTRODUCED_70_ ::var_is_introduced :: is_defined_var;
var 0..1: X_INTRODUCED_72_ ::var_is_introduced :: is_defined_var;
var 0.0..1.0: X_INTRODUCED_73_ ::var_is_introduced :: is_defined_var;
var 2.334887..2.696614: X_INTRODUCED_80_ ::var_is_introduced :: is_defined_var;
var 2.619678..2.696614: X_INTRODUCED_82_ ::var_is_introduced :: is_defined_var;
var 1.39219..2.696614: X_INTRODUCED_84_ ::var_is_introduced :: is_defined_var;
var 0.631348..2.696614: X_INTRODUCED_86_ ::var_is_introduced :: is_defined_var;
var 2.144573..2.696614: X_INTRODUCED_88_ ::var_is_introduced :: is_defined_var;
var 2.097855..2.696614: X_INTRODUCED_90_ ::var_is_introduced :: is_defined_var;
var 2.325282..2.696614: X_INTRODUCED_94_ ::var_is_introduced :: is_defined_var;
var 0.631348..2.696614: X_INTRODUCED_103_ ::var_is_introduced :: is_defined_var;
var 0.631348..2.696614: X_INTRODUCED_104_ ::var_is_introduced :: is_defined_var;
var 0.631348..2.696614: X_INTRODUCED_105_ ::var_is_introduced :: is_defined_var;
var 0.631348..2.696614: X_INTRODUCED_106_ ::var_is_introduced :: is_defined_var;
var 0.631348..2.696614: X_INTRODUCED_107_ ::var_is_introduced :: is_defined_var;
var 0.631348..2.696614: X_INTRODUCED_108_ ::var_is_introduced :: is_defined_var;
var 0.631348..2.696614: X_INTRODUCED_109_ ::var_is_introduced :: is_defined_var;
var 2.334887..2.696614: X_INTRODUCED_111_ ::var_is_introduced :: is_defined_var;
var 2.619678..2.696614: X_INTRODUCED_112_ ::var_is_introduced :: is_defined_var;
var 1.39219..2.696614: X_INTRODUCED_113_ ::var_is_introduced :: is_defined_var;
var 0.631348..2.696614: X_INTRODUCED_114_ ::var_is_introduced :: is_defined_var;
var 2.144573..2.696614: X_INTRODUCED_115_ ::var_is_introduced :: is_defined_var;
var 2.097855..2.696614: X_INTRODUCED_116_ ::var_is_introduced :: is_defined_var;
var 2.325282..2.696614: X_INTRODUCED_120_ ::var_is_introduced :: is_defined_var;
var 0.631348..2.696614: X_INTRODUCED_128_ ::var_is_introduced :: is_defined_var;
var 0.631348..2.696614: X_INTRODUCED_129_ ::var_is_introduced :: is_defined_var;
var 0.631348..2.696614: X_INTRODUCED_130_ ::var_is_introduced :: is_defined_var;
var 0.631348..2.696614: X_INTRODUCED_131_ ::var_is_introduced :: is_defined_var;
var 0.631348..2.696614: X_INTRODUCED_132_ ::var_is_introduced :: is_defined_var;
var 0.631348..2.696614: X_INTRODUCED_133_ ::var_is_introduced :: is_defined_var;
var 0.631348..2.696614: X_INTRODUCED_134_ ::var_is_introduced :: is_defined_var;
var 1.0..1.0: X_INTRODUCED_141_ ::var_is_introduced ;
var 0.0..5.480070629688931e+74: X_INTRODUCED_151_ ::var_is_introduced ;
var -1.0..5.480070629688931e+74: X_INTRODUCED_153_ ::var_is_introduced :: is_defined_var;
var 1.0..5.480070629688931e+74: X_INTRODUCED_154_ ::var_is_introduced :: is_defined_var;
var 0.0..1.0: X_INTRODUCED_155_ ::var_is_introduced :: is_defined_var;
var 4.263177369699539..172.0924148710656: X_INTRODUCED_157_ ::var_is_introduced :: is_defined_var;
var 0.0..6.547970755503686e+65: X_INTRODUCED_167_ ::var_is_introduced ;
var -1.0..6.547970755503686e+65: X_INTRODUCED_168_ ::var_is_introduced :: is_defined_var;
var 1.0..6.547970755503686e+65: X_INTRODUCED_169_ ::var_is_introduced :: is_defined_var;
var 0.0..1.0: X_INTRODUCED_170_ ::var_is_introduced :: is_defined_var;
var -188.3412658398137..151.5471862379396: X_INTRODUCED_171_ ::var_is_introduced :: is_defined_var;
var 0.0..4.978385641271666: X_INTRODUCED_179_ ::var_is_introduced ;
var -1.0..3.978385641271666: X_INTRODUCED_180_ ::var_is_introduced :: is_defined_var;
var 1.0..5.978385641271666: X_INTRODUCED_181_ ::var_is_introduced :: is_defined_var;
var float: X_INTRODUCED_182_ ::var_is_introduced :: is_defined_var;
var 1.591898383765573..1.605105670063278: X_INTRODUCED_183_ ::var_is_introduced :: is_defined_var;
var 1.0..1.0: X_INTRODUCED_190_ ::var_is_introduced ;
var 0.0..1.321638938637546e+58: X_INTRODUCED_200_ ::var_is_introduced ;
var -1.0..1.321638938637546e+58: X_INTRODUCED_201_ ::var_is_introduced :: is_defined_var;
var 1.0..1.321638938637546e+58: X_INTRODUCED_202_ ::var_is_introduced :: is_defined_var;
var 0.0..1.0: X_INTRODUCED_203_ ::var_is_introduced :: is_defined_var;
var 33.62177375258584..133.82880798026: X_INTRODUCED_204_ ::var_is_introduced :: is_defined_var;
var 0.0..6.673186673701685e-09: X_INTRODUCED_214_ ::var_is_introduced ;
var -1.0..-0.9999999933268133: X_INTRODUCED_215_ ::var_is_introduced :: is_defined_var;
var 1.0..1.000000006673187: X_INTRODUCED_216_ ::var_is_introduced :: is_defined_var;
var 0.0..1.0: X_INTRODUCED_217_ ::var_is_introduced :: is_defined_var;
var -94.37788993887175..-18.82516832893672: X_INTRODUCED_218_ ::var_is_introduced :: is_defined_var;
var 0.0..662.0816110085783: X_INTRODUCED_226_ ::var_is_introduced ;
var -1.0..661.0816110085783: X_INTRODUCED_227_ ::var_is_introduced :: is_defined_var;
var 1.0..663.0816110085783: X_INTRODUCED_228_ ::var_is_introduced :: is_defined_var;
var float: X_INTRODUCED_229_ ::var_is_introduced :: is_defined_var;
var -0.7205845702675808..6.49538882780787: X_INTRODUCED_230_ ::var_is_introduced :: is_defined_var;
var 0.0..1.0: obj:: output_var;
array [1..16] of var bool: x:: output_array([1..8,1..2]) = [X_INTRODUCED_0_,X_INTRODUCED_1_,X_INTRODUCED_2_,X_INTRODUCED_3_,X_INTRODUCED_4_,X_INTRODUCED_5_,X_INTRODUCED_6_,X_INTRODUCED_7_,X_INTRODUCED_8_,X_INTRODUCED_9_,X_INTRODUCED_10_,X_INTRODUCED_11_,X_INTRODUCED_12_,X_INTRODUCED_13_,X_INTRODUCED_14_,X_INTRODUCED_15_];
constraint float_lin_eq(X_INTRODUCED_102_,[X_INTRODUCED_94_,X_INTRODUCED_17_],2.696614):: defines_var(X_INTRODUCED_94_);
constraint float_min(2.696614,X_INTRODUCED_94_,X_INTRODUCED_103_):: defines_var(X_INTRODUCED_103_);
constraint float_min(X_INTRODUCED_80_,X_INTRODUCED_103_,X_INTRODUCED_104_):: defines_var(X_INTRODUCED_104_);
constraint float_min(X_INTRODUCED_82_,X_INTRODUCED_104_,X_INTRODUCED_105_):: defines_var(X_INTRODUCED_105_);
constraint float_min(X_INTRODUCED_84_,X_INTRODUCED_105_,X_INTRODUCED_106_):: defines_var(X_INTRODUCED_106_);
constraint float_min(X_INTRODUCED_86_,X_INTRODUCED_106_,X_INTRODUCED_107_):: defines_var(X_INTRODUCED_107_);
constraint float_min(X_INTRODUCED_88_,X_INTRODUCED_107_,X_INTRODUCED_108_):: defines_var(X_INTRODUCED_108_);
constraint float_min(X_INTRODUCED_90_,X_INTRODUCED_108_,X_INTRODUCED_109_):: defines_var(X_INTRODUCED_109_);
constraint float_lin_eq(X_INTRODUCED_102_,[X_INTRODUCED_120_,X_INTRODUCED_52_],2.696614):: defines_var(X_INTRODUCED_120_);
constraint float_min(2.696614,X_INTRODUCED_120_,X_INTRODUCED_128_):: defines_var(X_INTRODUCED_128_);
constraint float_min(X_INTRODUCED_111_,X_INTRODUCED_128_,X_INTRODUCED_129_):: defines_var(X_INTRODUCED_129_);
constraint float_min(X_INTRODUCED_112_,X_INTRODUCED_129_,X_INTRODUCED_130_):: defines_var(X_INTRODUCED_130_);
constraint float_min(X_INTRODUCED_113_,X_INTRODUCED_130_,X_INTRODUCED_131_):: defines_var(X_INTRODUCED_131_);
constraint float_min(X_INTRODUCED_114_,X_INTRODUCED_131_,X_INTRODUCED_132_):: defines_var(X_INTRODUCED_132_);
constraint float_min(X_INTRODUCED_115_,X_INTRODUCED_132_,X_INTRODUCED_133_):: defines_var(X_INTRODUCED_133_);
constraint float_min(X_INTRODUCED_116_,X_INTRODUCED_133_,X_INTRODUCED_134_):: defines_var(X_INTRODUCED_134_);
constraint float_div(X_INTRODUCED_153_,X_INTRODUCED_154_,X_INTRODUCED_155_):: defines_var(X_INTRODUCED_155_);
constraint float_le(-0.0,X_INTRODUCED_155_);
constraint float_le(X_INTRODUCED_155_,1.0);
constraint float_exp(X_INTRODUCED_157_,X_INTRODUCED_151_);
constraint float_div(X_INTRODUCED_168_,X_INTRODUCED_169_,X_INTRODUCED_170_):: defines_var(X_INTRODUCED_170_);
constraint float_le(-0.0,X_INTRODUCED_170_);
constraint float_le(X_INTRODUCED_170_,1.0);
constraint float_exp(X_INTRODUCED_171_,X_INTRODUCED_167_);
constraint float_div(X_INTRODUCED_180_,X_INTRODUCED_181_,X_INTRODUCED_182_):: defines_var(X_INTRODUCED_182_);
constraint float_le(-0.0,X_INTRODUCED_182_);
constraint float_le(X_INTRODUCED_182_,1.0);
constraint float_exp(X_INTRODUCED_183_,X_INTRODUCED_179_);
constraint float_div(X_INTRODUCED_201_,X_INTRODUCED_202_,X_INTRODUCED_203_):: defines_var(X_INTRODUCED_203_);
constraint float_le(-0.0,X_INTRODUCED_203_);
constraint float_le(X_INTRODUCED_203_,1.0);
constraint float_exp(X_INTRODUCED_204_,X_INTRODUCED_200_);
constraint float_div(X_INTRODUCED_215_,X_INTRODUCED_216_,X_INTRODUCED_217_):: defines_var(X_INTRODUCED_217_);
constraint float_le(-0.0,X_INTRODUCED_217_);
constraint float_le(X_INTRODUCED_217_,1.0);
constraint float_exp(X_INTRODUCED_218_,X_INTRODUCED_214_);
constraint float_div(X_INTRODUCED_227_,X_INTRODUCED_228_,X_INTRODUCED_229_):: defines_var(X_INTRODUCED_229_);
constraint float_le(-0.0,X_INTRODUCED_229_);
constraint float_le(X_INTRODUCED_229_,1.0);
constraint float_exp(X_INTRODUCED_230_,X_INTRODUCED_226_);
constraint int_lin_eq(X_INTRODUCED_232_,[X_INTRODUCED_16_,X_INTRODUCED_51_],1);
constraint int_lin_eq(X_INTRODUCED_232_,[X_INTRODUCED_20_,X_INTRODUCED_54_],1);
constraint int_lin_eq(X_INTRODUCED_232_,[X_INTRODUCED_24_,X_INTRODUCED_57_],1);
constraint int_lin_eq(X_INTRODUCED_232_,[X_INTRODUCED_28_,X_INTRODUCED_60_],1);
constraint int_lin_eq(X_INTRODUCED_232_,[X_INTRODUCED_32_,X_INTRODUCED_63_],1);
constraint int_lin_eq(X_INTRODUCED_232_,[X_INTRODUCED_36_,X_INTRODUCED_66_],1);
constraint int_lin_eq(X_INTRODUCED_232_,[X_INTRODUCED_40_,X_INTRODUCED_69_],1);
constraint int_lin_eq(X_INTRODUCED_232_,[X_INTRODUCED_44_,X_INTRODUCED_72_],1);
constraint int_lin_eq(X_INTRODUCED_241_,[X_INTRODUCED_16_,X_INTRODUCED_20_,X_INTRODUCED_24_,X_INTRODUCED_28_,X_INTRODUCED_32_,X_INTRODUCED_36_,X_INTRODUCED_40_,X_INTRODUCED_44_],4);
constraint int_lin_eq(X_INTRODUCED_241_,[X_INTRODUCED_51_,X_INTRODUCED_54_,X_INTRODUCED_57_,X_INTRODUCED_60_,X_INTRODUCED_63_,X_INTRODUCED_66_,X_INTRODUCED_69_,X_INTRODUCED_72_],4);
constraint float_lin_le(X_INTRODUCED_243_,[obj,X_INTRODUCED_182_],-0.0);
constraint float_lin_le(X_INTRODUCED_243_,[obj,X_INTRODUCED_229_],-0.0);
constraint bool2int(X_INTRODUCED_0_,X_INTRODUCED_16_):: defines_var(X_INTRODUCED_16_);
constraint int2float(X_INTRODUCED_16_,X_INTRODUCED_17_):: defines_var(X_INTRODUCED_17_);
constraint bool2int(X_INTRODUCED_2_,X_INTRODUCED_20_):: defines_var(X_INTRODUCED_20_);
constraint int2float(X_INTRODUCED_20_,X_INTRODUCED_21_):: defines_var(X_INTRODUCED_21_);
constraint bool2int(X_INTRODUCED_4_,X_INTRODUCED_24_):: defines_var(X_INTRODUCED_24_);
constraint int2float(X_INTRODUCED_24_,X_INTRODUCED_25_):: defines_var(X_INTRODUCED_25_);
constraint bool2int(X_INTRODUCED_6_,X_INTRODUCED_28_):: defines_var(X_INTRODUCED_28_);
constraint int2float(X_INTRODUCED_28_,X_INTRODUCED_29_):: defines_var(X_INTRODUCED_29_);
constraint bool2int(X_INTRODUCED_8_,X_INTRODUCED_32_):: defines_var(X_INTRODUCED_32_);
constraint int2float(X_INTRODUCED_32_,X_INTRODUCED_33_):: defines_var(X_INTRODUCED_33_);
constraint bool2int(X_INTRODUCED_10_,X_INTRODUCED_36_):: defines_var(X_INTRODUCED_36_);
constraint int2float(X_INTRODUCED_36_,X_INTRODUCED_37_):: defines_var(X_INTRODUCED_37_);
constraint bool2int(X_INTRODUCED_12_,X_INTRODUCED_40_):: defines_var(X_INTRODUCED_40_);
constraint int2float(X_INTRODUCED_40_,X_INTRODUCED_41_):: defines_var(X_INTRODUCED_41_);
constraint bool2int(X_INTRODUCED_14_,X_INTRODUCED_44_):: defines_var(X_INTRODUCED_44_);
constraint int2float(X_INTRODUCED_44_,X_INTRODUCED_45_):: defines_var(X_INTRODUCED_45_);
constraint bool2int(X_INTRODUCED_1_,X_INTRODUCED_51_):: defines_var(X_INTRODUCED_51_);
constraint int2float(X_INTRODUCED_51_,X_INTRODUCED_52_):: defines_var(X_INTRODUCED_52_);
constraint bool2int(X_INTRODUCED_3_,X_INTRODUCED_54_):: defines_var(X_INTRODUCED_54_);
constraint int2float(X_INTRODUCED_54_,X_INTRODUCED_55_):: defines_var(X_INTRODUCED_55_);
constraint bool2int(X_INTRODUCED_5_,X_INTRODUCED_57_):: defines_var(X_INTRODUCED_57_);
constraint int2float(X_INTRODUCED_57_,X_INTRODUCED_58_):: defines_var(X_INTRODUCED_58_);
constraint bool2int(X_INTRODUCED_7_,X_INTRODUCED_60_):: defines_var(X_INTRODUCED_60_);
constraint int2float(X_INTRODUCED_60_,X_INTRODUCED_61_):: defines_var(X_INTRODUCED_61_);
constraint bool2int(X_INTRODUCED_9_,X_INTRODUCED_63_):: defines_var(X_INTRODUCED_63_);
constraint int2float(X_INTRODUCED_63_,X_INTRODUCED_64_):: defines_var(X_INTRODUCED_64_);
constraint bool2int(X_INTRODUCED_11_,X_INTRODUCED_66_):: defines_var(X_INTRODUCED_66_);
constraint int2float(X_INTRODUCED_66_,X_INTRODUCED_67_):: defines_var(X_INTRODUCED_67_);
constraint bool2int(X_INTRODUCED_13_,X_INTRODUCED_69_):: defines_var(X_INTRODUCED_69_);
constraint int2float(X_INTRODUCED_69_,X_INTRODUCED_70_):: defines_var(X_INTRODUCED_70_);
constraint bool2int(X_INTRODUCED_15_,X_INTRODUCED_72_):: defines_var(X_INTRODUCED_72_);
constraint int2float(X_INTRODUCED_72_,X_INTRODUCED_73_):: defines_var(X_INTRODUCED_73_);
constraint float_lin_eq([-0.3617269999999997,-1.0],[X_INTRODUCED_25_,X_INTRODUCED_80_],-2.696614):: defines_var(X_INTRODUCED_80_);
constraint float_lin_eq([-0.07693599999999989,-1.0],[X_INTRODUCED_29_,X_INTRODUCED_82_],-2.696614):: defines_var(X_INTRODUCED_82_);
constraint float_lin_eq([-1.304424,-1.0],[X_INTRODUCED_33_,X_INTRODUCED_84_],-2.696614):: defines_var(X_INTRODUCED_84_);
constraint float_lin_eq([-2.065266,-1.0],[X_INTRODUCED_37_,X_INTRODUCED_86_],-2.696614):: defines_var(X_INTRODUCED_86_);
constraint float_lin_eq([-0.552041,-1.0],[X_INTRODUCED_41_,X_INTRODUCED_88_],-2.696614):: defines_var(X_INTRODUCED_88_);
constraint float_lin_eq([-0.5987589999999998,-1.0],[X_INTRODUCED_45_,X_INTRODUCED_90_],-2.696614):: defines_var(X_INTRODUCED_90_);
constraint float_lin_eq([-0.3617269999999997,-1.0],[X_INTRODUCED_58_,X_INTRODUCED_111_],-2.696614):: defines_var(X_INTRODUCED_111_);
constraint float_lin_eq([-0.07693599999999989,-1.0],[X_INTRODUCED_61_,X_INTRODUCED_112_],-2.696614):: defines_var(X_INTRODUCED_112_);
constraint float_lin_eq([-1.304424,-1.0],[X_INTRODUCED_64_,X_INTRODUCED_113_],-2.696614):: defines_var(X_INTRODUCED_113_);
constraint float_lin_eq([-2.065266,-1.0],[X_INTRODUCED_67_,X_INTRODUCED_114_],-2.696614):: defines_var(X_INTRODUCED_114_);
constraint float_lin_eq([-0.552041,-1.0],[X_INTRODUCED_70_,X_INTRODUCED_115_],-2.696614):: defines_var(X_INTRODUCED_115_);
constraint float_lin_eq([-0.5987589999999998,-1.0],[X_INTRODUCED_73_,X_INTRODUCED_116_],-2.696614):: defines_var(X_INTRODUCED_116_);
constraint float_lin_eq([1.0,-1.0],[X_INTRODUCED_151_,X_INTRODUCED_153_],1.0):: defines_var(X_INTRODUCED_153_);
constraint float_lin_eq([1.0,-1.0],[X_INTRODUCED_151_,X_INTRODUCED_154_],-1.0):: defines_var(X_INTRODUCED_154_);
constraint float_lin_eq([15.00490633714139,17.40108963017139,15.06688683041844,16.90462620166926,8.983719202017165,4.07405106397484,13.83880191656854,13.53733344338612,0.0349048540648078,9.011374022469319,10.45043024812779,9.0485971409925,10.1522732625266,5.395278852346323,2.446719566202276,8.311056216617636,8.130005758401508,-1.0],[X_INTRODUCED_17_,X_INTRODUCED_21_,X_INTRODUCED_25_,X_INTRODUCED_29_,X_INTRODUCED_33_,X_INTRODUCED_37_,X_INTRODUCED_41_,X_INTRODUCED_45_,X_INTRODUCED_109_,X_INTRODUCED_52_,X_INTRODUCED_55_,X_INTRODUCED_58_,X_INTRODUCED_61_,X_INTRODUCED_64_,X_INTRODUCED_67_,X_INTRODUCED_70_,X_INTRODUCED_73_,X_INTRODUCED_157_],-4.241140259895431):: defines_var(X_INTRODUCED_157_);
constraint float_lin_eq([1.0,-1.0],[X_INTRODUCED_167_,X_INTRODUCED_168_],1.0):: defines_var(X_INTRODUCED_168_);
constraint float_lin_eq([1.0,-1.0],[X_INTRODUCED_167_,X_INTRODUCED_169_],-1.0):: defines_var(X_INTRODUCED_169_);
constraint float_lin_eq([9.187480824291876,10.6546601296174,9.22543138397338,10.35067634412484,5.500717301716914,2.494535133138702,8.473476900347613,8.28888822286709,25.44129659094792,-31.94917339742786,-37.05124293394586,-32.0811452659936,-35.99414895372992,-19.12857008834416,-8.674666868843985,-29.46624738007779,-28.82434610411168,-1.0],[X_INTRODUCED_17_,X_INTRODUCED_21_,X_INTRODUCED_25_,X_INTRODUCED_29_,X_INTRODUCED_33_,X_INTRODUCED_37_,X_INTRODUCED_41_,X_INTRODUCED_45_,X_INTRODUCED_109_,X_INTRODUCED_52_,X_INTRODUCED_55_,X_INTRODUCED_58_,X_INTRODUCED_61_,X_INTRODUCED_64_,X_INTRODUCED_67_,X_INTRODUCED_70_,X_INTRODUCED_73_,X_INTRODUCED_171_],-18.76596343255931):: defines_var(X_INTRODUCED_171_);
constraint float_lin_eq([1.0,-1.0],[X_INTRODUCED_179_,X_INTRODUCED_180_],1.0):: defines_var(X_INTRODUCED_180_);
constraint float_lin_eq([1.0,-1.0],[X_INTRODUCED_179_,X_INTRODUCED_181_],-1.0):: defines_var(X_INTRODUCED_181_);
constraint float_lin_eq([0.006128902557007954,0.007078383740696838,1.591898383765573,-1.0],[X_INTRODUCED_155_,X_INTRODUCED_170_,X_INTRODUCED_141_,X_INTRODUCED_183_],-0.0):: defines_var(X_INTRODUCED_183_);
constraint float_lin_eq([1.0,-1.0],[X_INTRODUCED_200_,X_INTRODUCED_201_],1.0):: defines_var(X_INTRODUCED_201_);
constraint float_lin_eq([1.0,-1.0],[X_INTRODUCED_200_,X_INTRODUCED_202_],-1.0):: defines_var(X_INTRODUCED_202_);
constraint float_lin_eq([7.224274327567251,8.377942671709683,7.254115505934556,8.138914988329468,4.325308704963893,1.961495916693514,6.662840751140671,6.517695496485413,15.12717737421099,2.648879354789994,3.071887690369453,2.659821032488766,2.984244908960522,1.585933813165492,0.7192094046605757,2.443022026807949,2.389802526679758,-1.0],[X_INTRODUCED_52_,X_INTRODUCED_55_,X_INTRODUCED_58_,X_INTRODUCED_61_,X_INTRODUCED_64_,X_INTRODUCED_67_,X_INTRODUCED_70_,X_INTRODUCED_73_,X_INTRODUCED_134_,X_INTRODUCED_17_,X_INTRODUCED_21_,X_INTRODUCED_25_,X_INTRODUCED_29_,X_INTRODUCED_33_,X_INTRODUCED_37_,X_INTRODUCED_41_,X_INTRODUCED_45_,X_INTRODUCED_204_],-24.07126057173248):: defines_var(X_INTRODUCED_204_);
constraint float_lin_eq([1.0,-1.0],[X_INTRODUCED_214_,X_INTRODUCED_215_],1.0):: defines_var(X_INTRODUCED_215_);
constraint float_lin_eq([1.0,-1.0],[X_INTRODUCED_214_,X_INTRODUCED_216_],-1.0):: defines_var(X_INTRODUCED_216_);
constraint float_lin_eq([-6.746345892807814,-7.823692258998284,-6.774212900895615,-7.600477669280108,-4.039163976028761,-1.831731371391697,-6.222054464953726,-6.08651142655228,-6.444224211344042,-2.164521865130157,-2.510181545643106,-2.173462816169462,-2.438564574361493,-1.295939888329912,-0.5876992771226004,-1.996306318918641,-1.95281820328572,-1.0],[X_INTRODUCED_52_,X_INTRODUCED_55_,X_INTRODUCED_58_,X_INTRODUCED_61_,X_INTRODUCED_64_,X_INTRODUCED_67_,X_INTRODUCED_70_,X_INTRODUCED_73_,X_INTRODUCED_134_,X_INTRODUCED_17_,X_INTRODUCED_21_,X_INTRODUCED_25_,X_INTRODUCED_29_,X_INTRODUCED_33_,X_INTRODUCED_37_,X_INTRODUCED_41_,X_INTRODUCED_45_,X_INTRODUCED_218_],14.75662026155308):: defines_var(X_INTRODUCED_218_);
constraint float_lin_eq([1.0,-1.0],[X_INTRODUCED_226_,X_INTRODUCED_227_],1.0):: defines_var(X_INTRODUCED_227_);
constraint float_lin_eq([1.0,-1.0],[X_INTRODUCED_226_,X_INTRODUCED_228_],-1.0):: defines_var(X_INTRODUCED_228_);
constraint float_lin_eq([4.771903910429907,2.444069487645544,-0.7205845702675808,-1.0],[X_INTRODUCED_203_,X_INTRODUCED_217_,X_INTRODUCED_190_,X_INTRODUCED_230_],-0.0):: defines_var(X_INTRODUCED_230_);
solve  maximize obj;
